49
1000
200	4
198	1
197	1
196	3
195	5
194	4
193	1
192	2
191	1
190	3
189	4
188	2
187	2
186	3
185	1
184	4
183	1
182	1
181	1
180	3
179	1
178	3
177	4
176	4
175	2
174	3
173	3
172	1
171	2
170	1
169	4
168	2
167	5
166	5
165	2
164	2
163	1
162	3
161	5
160	3
159	3
158	1
157	2
156	1
155	1
154	2
153	1
152	1
150	5
